minizinc/sudoku_problems2/sudoku_p45.dzn
%
% sudoku_p45.dzn
% See http://www.hakank.org/minizinc/sudoku_gcc.mzn
% 
% This problem is problem 45 from
% Gecode's sudoku.cpp
% http://www.gecode.org/gecode-doc-latest/sudoku_8cpp-source.html
% 
x = array2d(1..n, 1..n, [   
% http://janko.at/Raetsel/Sudoku/362.a.htm
% 45
 10,  _,  _,  _,  1,  8,  _,  _,  7,  9,  _,  _, 12,  _,  _,  6,
  _,  3,  7,  _, 10,  2,  _,  _,  _, 15, 13,  _,  _,  _, 14,  9,
 16,  1,  4, 13,  _,  _,  5,  _,  _,  _,  8, 12,  _, 10,  _,  _,
  _,  2,  6,  8,  _, 14,  7,  _,  3, 10,  _,  _,  _,  _, 13,  5,
  3,  _,  _,  _, 13,  1,  _,  _,  _,  7, 10,  2,  _,  8,  _,  4,
  7, 12, 15,  _,  9,  _,  _,  4,  _,  _,  _,  _, 13,  _,  2,  _,
  5,  _,  _,  6,  3,  _, 10,  2,  8,  _,  _,  _,  1, 12, 15,  _,
  _,  _,  _,  1,  _,  6,  _,  _,  _,  3, 15, 13,  _,  _,  5,  _,
  _, 10,  _,  _, 15, 12,  6,  _,  _,  _,  9,  _,  3,  _,  _,  _,
  _, 13,  2, 15,  _,  _,  _,  3, 10,  5,  _,  1, 14,  _,  _,  8,
  _,  9,  _, 16,  _,  _,  _,  _, 13,  _,  _,  7,  _, 15,  1, 12,
 14,  _, 12,  _, 16,  9, 13,  _,  _,  _,  3, 15,  _,  _,  _,  7,
  1,  7,  _,  _,  _,  _,  9, 11,  _,  2, 14,  _,  4,  3, 12,  _,
  _,  _,  9,  _, 14,  3,  _,  _,  _, 12,  _,  _,  5, 13,  7, 15,
 15, 14,  _,  _,  _, 10, 12,  _,  _,  _, 16,  5,  _,  2,  9,  _,
 13,  _,  _, 12,  _,  _,  2, 15,  _,  _,  7,  3,  _,  _,  _, 14
]);

n = 16;


